3028
744
7380
758
4293
3336
7638
4239
4461
7076
6436
8294
9918
6630
6616
6962
2184
9899
1306
6216
3104
7420
7254
7486
5886
8570
5514
2639
5250
2168
3271
6920
2317
1459
716
5982
754
6853
7658
6100
8065
682
2702
9375
7098
4356
3377
9026
8700
4800
1639
